NAME: cum80.tsp
TYPE: TSP
COMMENT: User-generated TSP file
DIMENSION: 80
EDGE_WEIGHT_TYPE: EUC_2D
NODE_COORD_SECTION
1 17.0 19.0
2 34.0 10.0
3 60.0 34.0
4 31.0 32.0
5 16.0 28.0
6 63.0 18.0
7 49.0 63.0
8 55.0 66.0
9 5.0 80.0
10 29.0 48.0
11 77.0 57.0
12 25.0 5.0
13 42.0 75.0
14 80.0 46.0
15 63.0 40.0
16 58.0 79.0
17 3.0 44.0
18 6.0 62.0
19 34.0 35.0
20 9.0 38.0
21 41.0 22.0
22 31.0 63.0
23 71.0 60.0
24 8.0 53.0
25 66.0 76.0
26 53.0 47.0
27 68.0 72.0
28 39.0 8.0
29 74.0 49.0
30 13.0 60.0
31 52.0 46.0
32 51.0 43.0
33 29.0 17.0
34 21.0 29.0
35 79.0 31.0
36 32.0 12.0
37 19.0 67.0
38 1.0 65.0
39 9.0 40.0
40 62.0 40.0
41 63.0 16.0
42 9.0 38.0
43 44.0 6.0
44 1.0 65.0
45 52.0 65.0
46 9.0 62.0
47 69.0 76.0
48 25.0 20.0
49 78.0 40.0
50 59.0 25.0
51 54.0 11.0
52 74.0 2.0
53 5.0 51.0
54 9.0 51.0
55 60.0 32.0
56 41.0 39.0
57 15.0 67.0
58 28.0 56.0
59 17.0 41.0
60 22.0 27.0
61 38.0 71.0
62 63.0 76.0
63 78.0 78.0
64 38.0 17.0
65 23.0 21.0
66 62.0 57.0
67 20.0 79.0
68 19.0 38.0
69 24.0 25.0
70 29.0 30.0
71 35.0 70.0
72 1.0 42.0
73 13.0 31.0
74 3.0 60.0
75 13.0 44.0
76 73.0 4.0
77 53.0 64.0
78 55.0 78.0
79 36.0 80.0
80 62.0 28.0
EOF





